c ind 1 25 26 27 28 29 30 31 32 33 34 35 36 37 38 39 40 41 42 43 44 45 46 47 48 49 0
p cnf 86 207
1 -3 0
2 -3 0
-1 -2 3 0
1 -5 0
2 -5 0
4 -5 0
-1 -2 -4 5 0
1 -7 0
2 -7 0
4 -7 0
6 -7 0
-1 -2 -4 -6 7 0
1 -9 0
2 -9 0
4 -9 0
6 -9 0
8 -9 0
-1 -2 -4 -6 -8 9 0
1 -11 0
2 -11 0
4 -11 0
6 -11 0
8 -11 0
10 -11 0
-1 -2 -4 -6 -8 -10 11 0
1 -12 0
2 -12 0
4 -12 0
6 -12 0
8 -12 0
-10 -12 0
-1 -2 -4 -6 -8 10 12 0
1 -14 0
2 -14 0
4 -14 0
6 -14 0
8 -14 0
-10 -14 0
13 -14 0
-1 -2 -4 -6 -8 10 -13 14 0
1 -15 0
2 -15 0
4 -15 0
6 -15 0
8 -15 0
-10 -15 0
-13 -15 0
-1 -2 -4 -6 -8 10 13 15 0
1 -17 0
2 -17 0
4 -17 0
6 -17 0
8 -17 0
-10 -17 0
-13 -17 0
16 -17 0
-1 -2 -4 -6 -8 10 13 -16 17 0
1 -18 0
2 -18 0
4 -18 0
6 -18 0
8 -18 0
-10 -18 0
-13 -18 0
-16 -18 0
-1 -2 -4 -6 -8 10 13 16 18 0
1 -20 0
2 -20 0
4 -20 0
6 -20 0
8 -20 0
-10 -20 0
-13 -20 0
-16 -20 0
19 -20 0
-1 -2 -4 -6 -8 10 13 16 -19 20 0
1 -21 0
2 -21 0
4 -21 0
6 -21 0
8 -21 0
-10 -21 0
-13 -21 0
-16 -21 0
-19 -21 0
-1 -2 -4 -6 -8 10 13 16 19 21 0
1 -23 0
2 -23 0
4 -23 0
6 -23 0
8 -23 0
-10 -23 0
-13 -23 0
-16 -23 0
-19 -23 0
22 -23 0
-1 -2 -4 -6 -8 10 13 16 19 -22 23 0
24 0
25 -50 0
-25 50 0
-1 -50 -51 0
1 50 -51 0
-1 50 51 0
1 -50 51 0
-51 0
31 -52 0
-31 52 0
-2 -52 -53 0
2 52 -53 0
-2 52 53 0
2 -52 53 0
-53 0
37 -54 0
-37 54 0
-4 -54 -55 0
4 54 -55 0
-4 54 55 0
4 -54 55 0
-55 0
43 -56 0
-43 56 0
-6 -56 -57 0
6 56 -57 0
-6 56 57 0
6 -56 57 0
-57 0
49 -58 0
-49 58 0
-8 -58 -59 0
8 58 -59 0
-8 58 59 0
8 -58 59 0
-59 0
-31 60 0
31 -60 0
-31 -61 0
31 -61 0
31 62 0
-61 62 0
-31 61 -62 0
-10 -62 -63 0
10 62 -63 0
-10 62 63 0
10 -62 63 0
-63 0
-37 64 0
37 -64 0
-37 -65 0
37 -65 0
37 66 0
-65 66 0
-37 65 -66 0
-13 -66 -67 0
13 66 -67 0
-13 66 67 0
13 -66 67 0
-67 0
-25 68 0
25 -68 0
-25 -69 0
25 -69 0
25 70 0
-69 70 0
-25 69 -70 0
-16 -70 -71 0
16 70 -71 0
-16 70 71 0
16 -70 71 0
-71 0
-43 72 0
43 -72 0
-43 -73 0
43 -73 0
43 74 0
-73 74 0
-43 73 -74 0
-19 -74 -75 0
19 74 -75 0
-19 74 75 0
19 -74 75 0
-75 0
-49 76 0
49 -76 0
-49 -77 0
49 -77 0
49 78 0
-77 78 0
-49 77 -78 0
-22 -78 -79 0
22 78 -79 0
-22 78 79 0
22 -78 79 0
-79 0
11 14 17 20 23 0
-80 -82 -84 0
80 82 -84 0
-80 82 84 0
80 -82 84 0
-81 -83 -85 0
81 83 -85 0
-81 83 85 0
81 -83 85 0
-84 -86 0
-85 -86 0
84 85 86 0
-24 86 0
24 -86 0
c __CPROVER_malloc_is_new_array#1 FALSE
c goto_symex::\guard#1 1
c goto_symex::\guard#2 2
c goto_symex::\guard#3 4
c goto_symex::\guard#4 6
c goto_symex::\guard#5 8
c goto_symex::\guard#6 10
c goto_symex::\guard#7 13
c goto_symex::\guard#8 16
c goto_symex::\guard#9 19
c goto_symex::\guard#10 22
c __CPROVER_thread_id!0#1 FALSE FALSE FALSE FALSE FALSE FALSE FALSE FALSE FALSE FALSE FALSE FALSE FALSE FALSE FALSE FALSE FALSE FALSE FALSE FALSE FALSE FALSE FALSE FALSE FALSE FALSE FALSE FALSE FALSE FALSE FALSE FALSE FALSE FALSE FALSE FALSE FALSE FALSE FALSE FALSE FALSE FALSE FALSE FALSE FALSE FALSE FALSE FALSE FALSE FALSE FALSE FALSE FALSE FALSE FALSE FALSE FALSE FALSE FALSE FALSE FALSE FALSE FALSE FALSE
c __CPROVER_rounding_mode!0#1 FALSE FALSE FALSE FALSE FALSE FALSE FALSE FALSE FALSE FALSE FALSE FALSE FALSE FALSE FALSE FALSE FALSE FALSE FALSE FALSE FALSE FALSE FALSE FALSE FALSE FALSE FALSE FALSE FALSE FALSE FALSE FALSE
c __CPROVER_pipe_count#1 FALSE FALSE FALSE FALSE FALSE FALSE FALSE FALSE FALSE FALSE FALSE FALSE FALSE FALSE FALSE FALSE FALSE FALSE FALSE FALSE FALSE FALSE FALSE FALSE FALSE FALSE FALSE FALSE FALSE FALSE FALSE FALSE
c __CPROVER_deallocated#1 FALSE FALSE FALSE FALSE FALSE FALSE FALSE FALSE FALSE FALSE FALSE FALSE FALSE FALSE FALSE FALSE FALSE FALSE FALSE FALSE FALSE FALSE FALSE FALSE FALSE FALSE FALSE FALSE FALSE FALSE FALSE FALSE FALSE FALSE FALSE FALSE FALSE FALSE FALSE FALSE FALSE FALSE FALSE FALSE FALSE FALSE FALSE FALSE FALSE FALSE FALSE FALSE FALSE FALSE FALSE FALSE FALSE FALSE FALSE FALSE FALSE FALSE FALSE FALSE
c check::1::x!0@1#1 25 26 27 28 29 30 31 32 33 34 35 36 37 38 39 40 41 42 43 44 45 46 47 48 49
c __CPROVER_dead_object#1 FALSE FALSE FALSE FALSE FALSE FALSE FALSE FALSE FALSE FALSE FALSE FALSE FALSE FALSE FALSE FALSE FALSE FALSE FALSE FALSE FALSE FALSE FALSE FALSE FALSE FALSE FALSE FALSE FALSE FALSE FALSE FALSE FALSE FALSE FALSE FALSE FALSE FALSE FALSE FALSE FALSE FALSE FALSE FALSE FALSE FALSE FALSE FALSE FALSE FALSE FALSE FALSE FALSE FALSE FALSE FALSE FALSE FALSE FALSE FALSE FALSE FALSE FALSE FALSE
c __CPROVER_next_thread_id#1 FALSE FALSE FALSE FALSE FALSE FALSE FALSE FALSE FALSE FALSE FALSE FALSE FALSE FALSE FALSE FALSE FALSE FALSE FALSE FALSE FALSE FALSE FALSE FALSE FALSE FALSE FALSE FALSE FALSE FALSE FALSE FALSE FALSE FALSE FALSE FALSE FALSE FALSE FALSE FALSE FALSE FALSE FALSE FALSE FALSE FALSE FALSE FALSE FALSE FALSE FALSE FALSE FALSE FALSE FALSE FALSE FALSE FALSE FALSE FALSE FALSE FALSE FALSE FALSE
c __CPROVER_malloc_object#1 FALSE FALSE FALSE FALSE FALSE FALSE FALSE FALSE FALSE FALSE FALSE FALSE FALSE FALSE FALSE FALSE FALSE FALSE FALSE FALSE FALSE FALSE FALSE FALSE FALSE FALSE FALSE FALSE FALSE FALSE FALSE FALSE FALSE FALSE FALSE FALSE FALSE FALSE FALSE FALSE FALSE FALSE FALSE FALSE FALSE FALSE FALSE FALSE FALSE FALSE FALSE FALSE FALSE FALSE FALSE FALSE FALSE FALSE FALSE FALSE FALSE FALSE FALSE FALSE
c __CPROVER_malloc_size#1 FALSE FALSE FALSE FALSE FALSE FALSE FALSE FALSE FALSE FALSE FALSE FALSE FALSE FALSE FALSE FALSE FALSE FALSE FALSE FALSE FALSE FALSE FALSE FALSE FALSE FALSE FALSE FALSE FALSE FALSE FALSE FALSE FALSE FALSE FALSE FALSE FALSE FALSE FALSE FALSE FALSE FALSE FALSE FALSE FALSE FALSE FALSE FALSE FALSE FALSE FALSE FALSE FALSE FALSE FALSE FALSE FALSE FALSE FALSE FALSE FALSE FALSE FALSE FALSE
c __CPROVER_memory_leak#1 FALSE FALSE FALSE FALSE FALSE FALSE FALSE FALSE FALSE FALSE FALSE FALSE FALSE FALSE FALSE FALSE FALSE FALSE FALSE FALSE FALSE FALSE FALSE FALSE FALSE FALSE FALSE FALSE FALSE FALSE FALSE FALSE FALSE FALSE FALSE FALSE FALSE FALSE FALSE FALSE FALSE FALSE FALSE FALSE FALSE FALSE FALSE FALSE FALSE FALSE FALSE FALSE FALSE FALSE FALSE FALSE FALSE FALSE FALSE FALSE FALSE FALSE FALSE FALSE
